296,345
291,406
567,443
766,433
802,494
823,452
814,338
597,322
291,406
171,406
439,582
617,605
776,593
977,360
607,634
470,697
439,582
857,164
765,-127
802,494
681,766
598,662
567,443
597,322
912,-48
727,110
554,279
617,605
